NAME          
ROWS
 N  OBJ
 L  c1
COLUMNS
    MARKER    'MARKER'                 'INTORG'
    x[1]      c1        299
    x[1]      OBJ       -149
    x[2]      c1        903
    x[2]      OBJ       -990
    x[3]      c1        69
    x[3]      OBJ       -768
    x[4]      c1        353
    x[4]      OBJ       -312
    x[5]      c1        327
    x[5]      OBJ       -913
    x[6]      c1        926
    x[6]      OBJ       -153
    x[7]      c1        964
    x[7]      OBJ       -7
    x[8]      c1        444
    x[8]      OBJ       -389
    x[9]      c1        786
    x[9]      OBJ       -327
    x[10]     c1        749
    x[10]     OBJ       -123
    x[11]     c1        309
    x[11]     OBJ       -84
    x[12]     c1        19
    x[12]     OBJ       -339
    x[13]     c1        26
    x[13]     OBJ       -346
    x[14]     c1        696
    x[14]     OBJ       -156
    x[15]     c1        672
    x[15]     OBJ       -400
    x[16]     c1        706
    x[16]     OBJ       -691
    x[17]     c1        625
    x[17]     OBJ       -751
    x[18]     c1        490
    x[18]     OBJ       -521
    x[19]     c1        31
    x[19]     OBJ       -530
    x[20]     c1        37
    x[20]     OBJ       -456
    x[21]     c1        311
    x[21]     OBJ       -579
    x[22]     c1        287
    x[22]     OBJ       -291
    x[23]     c1        175
    x[23]     OBJ       -105
    x[24]     c1        129
    x[24]     OBJ       -833
    x[25]     c1        387
    x[25]     OBJ       -840
    x[26]     c1        115
    x[26]     OBJ       -93
    x[27]     c1        222
    x[27]     OBJ       -266
    x[28]     c1        364
    x[28]     OBJ       -563
    x[29]     c1        840
    x[29]     OBJ       -259
    x[30]     c1        715
    x[30]     OBJ       -824
    x[31]     c1        156
    x[31]     OBJ       -276
    x[32]     c1        452
    x[32]     OBJ       -689
    x[33]     c1        726
    x[33]     OBJ       -203
    x[34]     c1        966
    x[34]     OBJ       -603
    x[35]     c1        814
    x[35]     OBJ       -33
    x[36]     c1        682
    x[36]     OBJ       -420
    x[37]     c1        175
    x[37]     OBJ       -48
    x[38]     c1        649
    x[38]     OBJ       -588
    x[39]     c1        148
    x[39]     OBJ       -590
    x[40]     c1        443
    x[40]     OBJ       -636
    x[41]     c1        427
    x[41]     OBJ       -199
    x[42]     c1        630
    x[42]     OBJ       -305
    x[43]     c1        842
    x[43]     OBJ       -11
    x[44]     c1        446
    x[44]     OBJ       -855
    x[45]     c1        634
    x[45]     OBJ       -119
    x[46]     c1        560
    x[46]     OBJ       -71
    x[47]     c1        974
    x[47]     OBJ       -257
    x[48]     c1        90
    x[48]     OBJ       -785
    x[49]     c1        722
    x[49]     OBJ       -633
    x[50]     c1        20
    x[50]     OBJ       -620
RHS
    rhs       c1        11766
RANGES
BOUNDS
 BV bounds    x[1]
 BV bounds    x[2]
 BV bounds    x[3]
 BV bounds    x[4]
 BV bounds    x[5]
 BV bounds    x[6]
 BV bounds    x[7]
 BV bounds    x[8]
 BV bounds    x[9]
 BV bounds    x[10]
 BV bounds    x[11]
 BV bounds    x[12]
 BV bounds    x[13]
 BV bounds    x[14]
 BV bounds    x[15]
 BV bounds    x[16]
 BV bounds    x[17]
 BV bounds    x[18]
 BV bounds    x[19]
 BV bounds    x[20]
 BV bounds    x[21]
 BV bounds    x[22]
 BV bounds    x[23]
 BV bounds    x[24]
 BV bounds    x[25]
 BV bounds    x[26]
 BV bounds    x[27]
 BV bounds    x[28]
 BV bounds    x[29]
 BV bounds    x[30]
 BV bounds    x[31]
 BV bounds    x[32]
 BV bounds    x[33]
 BV bounds    x[34]
 BV bounds    x[35]
 BV bounds    x[36]
 BV bounds    x[37]
 BV bounds    x[38]
 BV bounds    x[39]
 BV bounds    x[40]
 BV bounds    x[41]
 BV bounds    x[42]
 BV bounds    x[43]
 BV bounds    x[44]
 BV bounds    x[45]
 BV bounds    x[46]
 BV bounds    x[47]
 BV bounds    x[48]
 BV bounds    x[49]
 BV bounds    x[50]
ENDATA
